<number of tasks>
50

<cycle time>
1000

<order strength>
0.597


<task times>
1 363
2 618
3 404
4 521
5 472
6 284
7 493
8 533
9 531
10 423
11 406
12 482
13 322
14 296
15 377
16 388
17 436
18 568
19 579
20 438
21 541
22 266
23 450
24 286
25 263
26 140
27 471
28 549
29 239
30 338
31 343
32 735
33 464
34 597
35 645
36 424
37 770
38 593
39 421
40 236
41 503
42 349
43 564
44 424
45 335
46 459
47 419
48 371
49 492
50 869

<precedence relations>
1,7
2,7
3,7
4,7
5,6
5,8
5,9
5,10
5,11
6,31
7,12
7,13
7,14
7,15
7,17
8,40
9,16
9,17
9,18
10,16
10,18
11,16
11,20
12,19
12,20
12,23
12,28
13,19
13,28
13,29
14,19
14,20
14,29
15,19
15,32
16,22
16,23
17,19
17,27
18,19
18,20
18,21
18,26
19,31
20,40
21,40
22,25
22,27
23,24
23,26
24,31
25,28
25,32
26,29
27,28
27,30
28,31
29,38
29,39
30,32
31,33
31,34
31,35
31,36
31,37
31,48
32,38
32,39
33,50
35,41
35,49
37,47
38,40
39,41
39,42
40,43
40,44
40,45
40,46
42,47
44,48
44,49
44,50
45,48
46,48

<end>
